NAME: berlin52
TYPE: TOUR
DIMENSION: 52
TOUR_SECTION
35
36
24
48
34
5
15
6
20
50
38
40
37
39
2
7
1
22
32
49
8
41
4
19
45
42
44
18
31
9
10
23
25
27
28
46
26
16
3
21
30
12
13
47
51
29
14
17
43
52
11
33
EOF